c This Formular is generated by mcnf
c
c    horn? no 
c    forced? no 
c    mixed sat? no 
c    clause length = 3 
c
p cnf 20  91 
 13 10 -17 0
-10 -19 16 0
-4 9 19 0
9 -7 -18 0
18 6 12 0
-17 7 12 0
16 -18 -14 0
18 17 -9 0
7 15 6 0
-1 20 -8 0
16 5 4 0
8 18 4 0
18 5 20 0
4 -12 20 0
-11 16 2 0
-15 3 -14 0
4 -18 -14 0
10 17 5 0
-14 -6 -2 0
-14 5 -12 0
-5 -17 -2 0
%
0

82 69 87 43 53 96 2 82 23 5 23 92 72 99 33 50 39 79 77 52
